
Gurobi 11.0.0 (win64) logging started Mon Apr 22 12:22:23 2024

Set parameter LogFile to value "./Results/StripPacking_CutsTest_SBL/Logs/SBL-StripPacking-15.log"
Set parameter TimeLimit to value 3600
Set parameter Cuts to value 1
Set parameter Presolve to value 1
Set parameter Heuristics to value 1
Gurobi Optimizer version 11.0.0 build v11.0.0rc2 (win64 - Windows 10.0 (19045.2))

CPU model: Intel(R) Core(TM) i9-10980XE CPU @ 3.00GHz, instruction set [SSE2|AVX|AVX2|AVX512]
Thread count: 18 physical cores, 36 logical processors, using up to 18 threads

Optimize a model with 1275 rows, 241 columns and 4230 nonzeros
Model fingerprint: 0x720e32a7
Variable types: 31 continuous, 210 integer (210 binary)
Coefficient statistics:
  Matrix range     [1e+00, 3e+02]
  Objective range  [1e+00, 1e+00]
  Bounds range     [1e+00, 3e+02]
  RHS range        [2e+00, 6e+02]
Presolve removed 6 rows and 1 columns
Presolve time: 0.00s
Presolved: 1269 rows, 240 columns, 4235 nonzeros
Variable types: 31 continuous, 209 integer (209 binary)

Root relaxation: objective 1.690000e+02, 196 iterations, 0.02 seconds (0.00 work units)

    Nodes    |    Current Node    |     Objective Bounds      |     Work
 Expl Unexpl |  Obj  Depth IntInf | Incumbent    BestBd   Gap | It/Node Time

     0     0  169.00000    0   18          -  169.00000      -     -    0s
     0     0  169.00000    0   23          -  169.00000      -     -    0s
     0     0  169.00000    0   23          -  169.00000      -     -    0s
     0     0  169.00000    0   20          -  169.00000      -     -    0s
     0     0  169.00000    0   27          -  169.00000      -     -    0s
     0     0  169.00000    0   24          -  169.00000      -     -    0s
     0     0  169.00000    0   27          -  169.00000      -     -    0s
     0     0  169.00000    0   21          -  169.00000      -     -    0s
     0     0  169.00000    0   27          -  169.00000      -     -    0s
     0     0  169.00000    0   21          -  169.00000      -     -    0s
     0     0  169.00000    0   21          -  169.00000      -     -    0s
     0     2  169.00000    0   21          -  169.00000      -     -    1s
* 5239  1569              37     300.0000000  272.00000  9.33%   2.8    3s

Cutting planes:
  Learned: 400
  MIR: 10
  Flow cover: 16
  Mod-K: 2

Explored 5715 nodes (66736 simplex iterations) in 3.77 seconds (4.59 work units)
Thread count was 18 (of 36 available processors)

Solution count 1: 300 

Optimal solution found (tolerance 1.00e-04)
Best objective 3.000000000000e+02, best bound 3.000000000000e+02, gap 0.0000%

Gurobi 11.0.0 (win64) logging started Mon Apr 22 12:22:27 2024

Set parameter LogFile to value "./Results/StripPacking_CutsTest_SBL/Logs/SBL-StripPacking-15.log"
Set parameter TimeLimit to value 3600
Set parameter Cuts to value 1
Set parameter Presolve to value 0
Set parameter Heuristics to value 0
Gurobi Optimizer version 11.0.0 build v11.0.0rc2 (win64 - Windows 10.0 (19045.2))

CPU model: Intel(R) Core(TM) i9-10980XE CPU @ 3.00GHz, instruction set [SSE2|AVX|AVX2|AVX512]
Thread count: 18 physical cores, 36 logical processors, using up to 18 threads

Optimize a model with 1275 rows, 241 columns and 4230 nonzeros
Model fingerprint: 0x720e32a7
Variable types: 31 continuous, 210 integer (210 binary)
Coefficient statistics:
  Matrix range     [1e+00, 3e+02]
  Objective range  [1e+00, 1e+00]
  Bounds range     [1e+00, 3e+02]
  RHS range        [2e+00, 6e+02]
Variable types: 31 continuous, 210 integer (210 binary)

Root relaxation: objective 1.500000e+02, 164 iterations, 0.00 seconds (0.00 work units)

    Nodes    |    Current Node    |     Objective Bounds      |     Work
 Expl Unexpl |  Obj  Depth IntInf | Incumbent    BestBd   Gap | It/Node Time

     0     0  150.00000    0   22          -  150.00000      -     -    0s
     0     0  169.00000    0   21          -  169.00000      -     -    0s
     0     0  169.00000    0   46          -  169.00000      -     -    0s
     0     0  169.00000    0   32          -  169.00000      -     -    0s
     0     0  169.00000    0   25          -  169.00000      -     -    0s
     0     0  169.00000    0   30          -  169.00000      -     -    0s
     0     0  169.00000    0   34          -  169.00000      -     -    0s
     0     0  169.00000    0   39          -  169.00000      -     -    0s
     0     0  197.00000    0   30          -  197.00000      -     -    0s
     0     0  214.00000    0   37          -  214.00000      -     -    0s
     0     0  253.00000    0   31          -  253.00000      -     -    0s
     0     0  253.00000    0   27          -  253.00000      -     -    0s
     0     2  253.00000    0   20          -  253.00000      -     -    0s
* 8216  1557              43     300.0000000  281.00000  6.33%   9.6    1s

Cutting planes:
  Learned: 458
  Gomory: 1
  Cover: 3
  MIR: 8
  Flow cover: 15
  Relax-and-lift: 1

Explored 9439 nodes (98832 simplex iterations) in 1.61 seconds (0.88 work units)
Thread count was 18 (of 36 available processors)

Solution count 1: 300 

Optimal solution found (tolerance 1.00e-04)
Best objective 3.000000000000e+02, best bound 3.000000000000e+02, gap 0.0000%

Gurobi 11.0.0 (win64) logging started Mon Apr 22 12:22:29 2024

Set parameter LogFile to value "./Results/StripPacking_CutsTest_SBL/Logs/SBL-StripPacking-15.log"
Set parameter TimeLimit to value 3600
Set parameter Cuts to value 0
Set parameter Presolve to value 1
Set parameter Heuristics to value 0
Gurobi Optimizer version 11.0.0 build v11.0.0rc2 (win64 - Windows 10.0 (19045.2))

CPU model: Intel(R) Core(TM) i9-10980XE CPU @ 3.00GHz, instruction set [SSE2|AVX|AVX2|AVX512]
Thread count: 18 physical cores, 36 logical processors, using up to 18 threads

Optimize a model with 1275 rows, 241 columns and 4230 nonzeros
Model fingerprint: 0x720e32a7
Variable types: 31 continuous, 210 integer (210 binary)
Coefficient statistics:
  Matrix range     [1e+00, 3e+02]
  Objective range  [1e+00, 1e+00]
  Bounds range     [1e+00, 3e+02]
  RHS range        [2e+00, 6e+02]
Presolve removed 6 rows and 1 columns
Presolve time: 0.00s
Presolved: 1269 rows, 240 columns, 4235 nonzeros
Variable types: 31 continuous, 209 integer (209 binary)

Root relaxation: objective 1.690000e+02, 196 iterations, 0.00 seconds (0.00 work units)

    Nodes    |    Current Node    |     Objective Bounds      |     Work
 Expl Unexpl |  Obj  Depth IntInf | Incumbent    BestBd   Gap | It/Node Time

     0     0  169.00000    0   18          -  169.00000      -     -    0s
     0     0  169.00000    0   13          -  169.00000      -     -    0s
     0     2  169.00000    0   13          -  169.00000      -     -    0s
* 7770   863              47     300.0000000  296.00000  1.33%   5.5    0s

Explored 8578 nodes (89911 simplex iterations) in 0.61 seconds (0.53 work units)
Thread count was 18 (of 36 available processors)

Solution count 1: 300 

Optimal solution found (tolerance 1.00e-04)
Best objective 3.000000000000e+02, best bound 3.000000000000e+02, gap 0.0000%

Gurobi 11.0.0 (win64) logging started Mon Apr 22 12:22:29 2024

Set parameter LogFile to value "./Results/StripPacking_CutsTest_SBL/Logs/SBL-StripPacking-15.log"
Set parameter TimeLimit to value 3600
Set parameter Cuts to value 0
Set parameter Presolve to value 0
Set parameter Heuristics to value 1
Gurobi Optimizer version 11.0.0 build v11.0.0rc2 (win64 - Windows 10.0 (19045.2))

CPU model: Intel(R) Core(TM) i9-10980XE CPU @ 3.00GHz, instruction set [SSE2|AVX|AVX2|AVX512]
Thread count: 18 physical cores, 36 logical processors, using up to 18 threads

Optimize a model with 1275 rows, 241 columns and 4230 nonzeros
Model fingerprint: 0x720e32a7
Variable types: 31 continuous, 210 integer (210 binary)
Coefficient statistics:
  Matrix range     [1e+00, 3e+02]
  Objective range  [1e+00, 1e+00]
  Bounds range     [1e+00, 3e+02]
  RHS range        [2e+00, 6e+02]
Variable types: 31 continuous, 210 integer (210 binary)

Root relaxation: objective 1.500000e+02, 164 iterations, 0.00 seconds (0.00 work units)

    Nodes    |    Current Node    |     Objective Bounds      |     Work
 Expl Unexpl |  Obj  Depth IntInf | Incumbent    BestBd   Gap | It/Node Time

     0     0  150.00000    0   22          -  150.00000      -     -    0s
     0     0  169.00000    0   21          -  169.00000      -     -    0s
     0     0  169.00000    0   21          -  169.00000      -     -    0s
     0     2  169.00000    0   17          -  169.00000      -     -    0s
* 7480  1236              51     300.0000000  272.00000  9.33%   9.3    0s

Explored 8052 nodes (75760 simplex iterations) in 0.73 seconds (0.65 work units)
Thread count was 18 (of 36 available processors)

Solution count 1: 300 

Optimal solution found (tolerance 1.00e-04)
Best objective 3.000000000000e+02, best bound 3.000000000000e+02, gap 0.0000%

Gurobi 11.0.0 (win64) logging started Mon Apr 22 12:22:30 2024

Set parameter LogFile to value "./Results/StripPacking_CutsTest_SBL/Logs/SBL-StripPacking-15.log"
Set parameter TimeLimit to value 3600
Set parameter Cuts to value 1
Set parameter Presolve to value 1
Set parameter Heuristics to value 0
Gurobi Optimizer version 11.0.0 build v11.0.0rc2 (win64 - Windows 10.0 (19045.2))

CPU model: Intel(R) Core(TM) i9-10980XE CPU @ 3.00GHz, instruction set [SSE2|AVX|AVX2|AVX512]
Thread count: 18 physical cores, 36 logical processors, using up to 18 threads

Optimize a model with 1275 rows, 241 columns and 4230 nonzeros
Model fingerprint: 0x720e32a7
Variable types: 31 continuous, 210 integer (210 binary)
Coefficient statistics:
  Matrix range     [1e+00, 3e+02]
  Objective range  [1e+00, 1e+00]
  Bounds range     [1e+00, 3e+02]
  RHS range        [2e+00, 6e+02]
Presolve removed 6 rows and 1 columns
Presolve time: 0.00s
Presolved: 1269 rows, 240 columns, 4235 nonzeros
Variable types: 31 continuous, 209 integer (209 binary)

Root relaxation: objective 1.690000e+02, 196 iterations, 0.00 seconds (0.00 work units)

    Nodes    |    Current Node    |     Objective Bounds      |     Work
 Expl Unexpl |  Obj  Depth IntInf | Incumbent    BestBd   Gap | It/Node Time

     0     0  169.00000    0   18          -  169.00000      -     -    0s
     0     0  169.00000    0   23          -  169.00000      -     -    0s
     0     0  169.00000    0   23          -  169.00000      -     -    0s
     0     0  169.00000    0   31          -  169.00000      -     -    0s
     0     0  169.00000    0   25          -  169.00000      -     -    0s
     0     0  169.00000    0   22          -  169.00000      -     -    0s
     0     0  169.00000    0   27          -  169.00000      -     -    0s
     0     0  169.00000    0   34          -  169.00000      -     -    0s
     0     0  169.00000    0   33          -  169.00000      -     -    0s
     0     0  169.00000    0   33          -  169.00000      -     -    0s
     0     0  169.00000    0   33          -  169.00000      -     -    0s
     0     2  169.00000    0   19          -  169.00000      -     -    0s
* 5343  1539              40     300.0000000  281.00000  6.33%   4.1    0s

Cutting planes:
  Learned: 457
  Gomory: 1
  Cover: 2
  MIR: 15
  Flow cover: 9

Explored 6389 nodes (89334 simplex iterations) in 1.21 seconds (0.78 work units)
Thread count was 18 (of 36 available processors)

Solution count 1: 300 

Optimal solution found (tolerance 1.00e-04)
Best objective 3.000000000000e+02, best bound 3.000000000000e+02, gap 0.0000%

Gurobi 11.0.0 (win64) logging started Mon Apr 22 12:22:31 2024

Set parameter LogFile to value "./Results/StripPacking_CutsTest_SBL/Logs/SBL-StripPacking-15.log"
Set parameter TimeLimit to value 3600
Set parameter Cuts to value 1
Set parameter Presolve to value 0
Set parameter Heuristics to value 1
Gurobi Optimizer version 11.0.0 build v11.0.0rc2 (win64 - Windows 10.0 (19045.2))

CPU model: Intel(R) Core(TM) i9-10980XE CPU @ 3.00GHz, instruction set [SSE2|AVX|AVX2|AVX512]
Thread count: 18 physical cores, 36 logical processors, using up to 18 threads

Optimize a model with 1275 rows, 241 columns and 4230 nonzeros
Model fingerprint: 0x720e32a7
Variable types: 31 continuous, 210 integer (210 binary)
Coefficient statistics:
  Matrix range     [1e+00, 3e+02]
  Objective range  [1e+00, 1e+00]
  Bounds range     [1e+00, 3e+02]
  RHS range        [2e+00, 6e+02]
Variable types: 31 continuous, 210 integer (210 binary)

Root relaxation: objective 1.500000e+02, 164 iterations, 0.00 seconds (0.00 work units)

    Nodes    |    Current Node    |     Objective Bounds      |     Work
 Expl Unexpl |  Obj  Depth IntInf | Incumbent    BestBd   Gap | It/Node Time

     0     0  150.00000    0   22          -  150.00000      -     -    0s
     0     0  169.00000    0   21          -  169.00000      -     -    0s
     0     0  169.00000    0   46          -  169.00000      -     -    0s
     0     0  169.00000    0   32          -  169.00000      -     -    0s
     0     0  169.00000    0   23          -  169.00000      -     -    0s
     0     0  169.00000    0   29          -  169.00000      -     -    0s
     0     0  169.00000    0   25          -  169.00000      -     -    0s
     0     0  169.00000    0   24          -  169.00000      -     -    0s
     0     0  169.00000    0   33          -  169.00000      -     -    0s
     0     0  169.00000    0   34          -  169.00000      -     -    0s
     0     0  169.00000    0   33          -  169.00000      -     -    0s
     0     0  169.00000    0   24          -  169.00000      -     -    0s
     0     2  169.00000    0   16          -  169.00000      -     -    0s
*11708  1035              46     300.0000000  296.00000  1.33%   8.4    1s

Cutting planes:
  Learned: 486
  Gomory: 5
  Cover: 8
  MIR: 24
  Flow cover: 24
  Mod-K: 2

Explored 12628 nodes (113238 simplex iterations) in 1.96 seconds (1.27 work units)
Thread count was 18 (of 36 available processors)

Solution count 1: 300 

Optimal solution found (tolerance 1.00e-04)
Best objective 3.000000000000e+02, best bound 3.000000000000e+02, gap 0.0000%

Gurobi 11.0.0 (win64) logging started Mon Apr 22 12:22:33 2024

Set parameter LogFile to value "./Results/StripPacking_CutsTest_SBL/Logs/SBL-StripPacking-15.log"
Set parameter TimeLimit to value 3600
Set parameter Cuts to value 0
Set parameter Presolve to value 1
Set parameter Heuristics to value 1
Gurobi Optimizer version 11.0.0 build v11.0.0rc2 (win64 - Windows 10.0 (19045.2))

CPU model: Intel(R) Core(TM) i9-10980XE CPU @ 3.00GHz, instruction set [SSE2|AVX|AVX2|AVX512]
Thread count: 18 physical cores, 36 logical processors, using up to 18 threads

Optimize a model with 1275 rows, 241 columns and 4230 nonzeros
Model fingerprint: 0x720e32a7
Variable types: 31 continuous, 210 integer (210 binary)
Coefficient statistics:
  Matrix range     [1e+00, 3e+02]
  Objective range  [1e+00, 1e+00]
  Bounds range     [1e+00, 3e+02]
  RHS range        [2e+00, 6e+02]
Presolve removed 6 rows and 1 columns
Presolve time: 0.00s
Presolved: 1269 rows, 240 columns, 4235 nonzeros
Variable types: 31 continuous, 209 integer (209 binary)

Root relaxation: objective 1.690000e+02, 196 iterations, 0.00 seconds (0.00 work units)

    Nodes    |    Current Node    |     Objective Bounds      |     Work
 Expl Unexpl |  Obj  Depth IntInf | Incumbent    BestBd   Gap | It/Node Time

     0     0  169.00000    0   18          -  169.00000      -     -    0s
     0     0  169.00000    0   18          -  169.00000      -     -    0s
     0     2  169.00000    0   14          -  169.00000      -     -    0s
* 4487  1328              36     300.0000000  272.00000  9.33%   2.2    2s

Explored 4709 nodes (46411 simplex iterations) in 2.94 seconds (4.26 work units)
Thread count was 18 (of 36 available processors)

Solution count 1: 300 

Optimal solution found (tolerance 1.00e-04)
Best objective 3.000000000000e+02, best bound 3.000000000000e+02, gap 0.0000%

Gurobi 11.0.0 (win64) logging started Mon Apr 22 12:22:36 2024

Set parameter LogFile to value "./Results/StripPacking_CutsTest_SBL/Logs/SBL-StripPacking-15.log"
Set parameter TimeLimit to value 3600
Set parameter Cuts to value 0
Set parameter Presolve to value 0
Set parameter Heuristics to value 0
Gurobi Optimizer version 11.0.0 build v11.0.0rc2 (win64 - Windows 10.0 (19045.2))

CPU model: Intel(R) Core(TM) i9-10980XE CPU @ 3.00GHz, instruction set [SSE2|AVX|AVX2|AVX512]
Thread count: 18 physical cores, 36 logical processors, using up to 18 threads

Optimize a model with 1275 rows, 241 columns and 4230 nonzeros
Model fingerprint: 0x720e32a7
Variable types: 31 continuous, 210 integer (210 binary)
Coefficient statistics:
  Matrix range     [1e+00, 3e+02]
  Objective range  [1e+00, 1e+00]
  Bounds range     [1e+00, 3e+02]
  RHS range        [2e+00, 6e+02]
Variable types: 31 continuous, 210 integer (210 binary)

Root relaxation: objective 1.500000e+02, 164 iterations, 0.00 seconds (0.00 work units)

    Nodes    |    Current Node    |     Objective Bounds      |     Work
 Expl Unexpl |  Obj  Depth IntInf | Incumbent    BestBd   Gap | It/Node Time

     0     0  150.00000    0   22          -  150.00000      -     -    0s
     0     0  169.00000    0   21          -  169.00000      -     -    0s
     0     0  169.00000    0   19          -  169.00000      -     -    0s
     0     2  169.00000    0   19          -  169.00000      -     -    0s
* 7132  1447              52     300.0000000  296.00000  1.33%   9.7    0s

Explored 7422 nodes (71662 simplex iterations) in 0.54 seconds (0.48 work units)
Thread count was 18 (of 36 available processors)

Solution count 1: 300 

Optimal solution found (tolerance 1.00e-04)
Best objective 3.000000000000e+02, best bound 3.000000000000e+02, gap 0.0000%
